p cnf 200 1110
-101 41 0
-101 -2 0
-101 -10 0
-101 -76 0
-101 52 0
-101 99 0
-101 5 0
-101 19 0
-101 -95 0
-101 -12 0
101 -41 2 10 76 -52 -99 -5 -19 95 12 0
-102 23 0
-102 -51 0
-102 64 0
-102 -98 0
-102 -100 0
-102 95 0
-102 22 0
-102 -8 0
-102 -52 0
-102 -92 0
102 -23 51 -64 98 100 -95 -22 8 52 92 0
-103 -65 0
-103 35 0
-103 48 0
-103 7 0
-103 95 0
-103 -47 0
-103 74 0
-103 45 0
-103 -76 0
-103 -8 0
103 65 -35 -48 -7 -95 47 -74 -45 76 8 0
-104 41 0
-104 -30 0
-104 55 0
-104 82 0
-104 -10 0
-104 -2 0
-104 -22 0
-104 72 0
-104 99 0
-104 -94 0
104 -41 30 -55 -82 10 2 22 -72 -99 94 0
-105 -5 0
-105 -90 0
-105 80 0
-105 43 0
-105 -27 0
-105 -58 0
-105 -52 0
-105 -89 0
-105 7 0
-105 -49 0
105 5 90 -80 -43 27 58 52 89 -7 49 0
-106 -4 0
-106 -97 0
-106 64 0
-106 -15 0
-106 -52 0
-106 34 0
-106 -16 0
-106 94 0
-106 -39 0
-106 -88 0
106 4 97 -64 15 52 -34 16 -94 39 88 0
-107 -4 0
-107 -67 0
-107 -70 0
-107 -72 0
-107 -10 0
-107 -93 0
-107 -33 0
-107 24 0
-107 -37 0
-107 -99 0
107 4 67 70 72 10 93 33 -24 37 99 0
-108 81 0
-108 -37 0
-108 -65 0
-108 -46 0
-108 36 0
-108 -95 0
-108 52 0
-108 56 0
-108 47 0
-108 -75 0
108 -81 37 65 46 -36 95 -52 -56 -47 75 0
-109 73 0
-109 89 0
-109 -23 0
-109 61 0
-109 83 0
-109 57 0
-109 -95 0
-109 -54 0
-109 58 0
-109 -76 0
109 -73 -89 23 -61 -83 -57 95 54 -58 76 0
-110 -34 0
-110 -2 0
-110 53 0
-110 -36 0
-110 35 0
-110 78 0
-110 -54 0
-110 -10 0
-110 32 0
-110 55 0
110 34 2 -53 36 -35 -78 54 10 -32 -55 0
101 102 103 104 105 106 107 108 109 110 0
-111 -100 0
-111 33 0
-111 -35 0
-111 66 0
-111 57 0
-111 84 0
-111 83 0
-111 12 0
-111 19 0
-111 69 0
111 100 -33 35 -66 -57 -84 -83 -12 -19 -69 0
-112 65 0
-112 69 0
-112 3 0
-112 -89 0
-112 15 0
-112 48 0
-112 98 0
-112 -58 0
-112 62 0
-112 96 0
112 -65 -69 -3 89 -15 -48 -98 58 -62 -96 0
-113 26 0
-113 -25 0
-113 18 0
-113 82 0
-113 42 0
-113 -31 0
-113 72 0
-113 7 0
-113 10 0
-113 6 0
113 -26 25 -18 -82 -42 31 -72 -7 -10 -6 0
-114 -74 0
-114 -36 0
-114 -88 0
-114 -5 0
-114 -90 0
-114 -75 0
-114 35 0
-114 -15 0
-114 63 0
-114 -24 0
114 74 36 88 5 90 75 -35 15 -63 24 0
-115 60 0
-115 -88 0
-115 26 0
-115 93 0
-115 12 0
-115 52 0
-115 1 0
-115 -4 0
-115 -70 0
-115 74 0
115 -60 88 -26 -93 -12 -52 -1 4 70 -74 0
-116 -15 0
-116 -21 0
-116 -59 0
-116 -33 0
-116 -70 0
-116 53 0
-116 -8 0
-116 57 0
-116 62 0
-116 -71 0
116 15 21 59 33 70 -53 8 -57 -62 71 0
-117 -57 0
-117 30 0
-117 -52 0
-117 22 0
-117 -5 0
-117 8 0
-117 64 0
-117 77 0
-117 7 0
-117 -33 0
117 57 -30 52 -22 5 -8 -64 -77 -7 33 0
-118 10 0
-118 21 0
-118 -82 0
-118 1 0
-118 86 0
-118 58 0
-118 -53 0
-118 -5 0
-118 -55 0
-118 13 0
118 -10 -21 82 -1 -86 -58 53 5 55 -13 0
-119 88 0
-119 19 0
-119 -35 0
-119 3 0
-119 -21 0
-119 -36 0
-119 32 0
-119 -92 0
-119 71 0
-119 -41 0
119 -88 -19 35 -3 21 36 -32 92 -71 41 0
-120 16 0
-120 56 0
-120 -33 0
-120 1 0
-120 -89 0
-120 -17 0
-120 -43 0
-120 76 0
-120 -78 0
-120 -18 0
120 -16 -56 33 -1 89 17 43 -76 78 18 0
111 112 113 114 115 116 117 118 119 120 0
-121 81 0
-121 -50 0
-121 -86 0
-121 90 0
-121 -69 0
-121 -41 0
-121 -95 0
-121 -75 0
-121 -64 0
-121 51 0
121 -81 50 86 -90 69 41 95 75 64 -51 0
-122 99 0
-122 -25 0
-122 -97 0
-122 -91 0
-122 2 0
-122 -98 0
-122 -71 0
-122 -38 0
-122 79 0
-122 68 0
122 -99 25 97 91 -2 98 71 38 -79 -68 0
-123 61 0
-123 -37 0
-123 -20 0
-123 -87 0
-123 -21 0
-123 13 0
-123 -6 0
-123 -4 0
-123 -96 0
-123 81 0
123 -61 37 20 87 21 -13 6 4 96 -81 0
-124 -20 0
-124 52 0
-124 72 0
-124 -66 0
-124 5 0
-124 78 0
-124 -36 0
-124 -34 0
-124 84 0
-124 44 0
124 20 -52 -72 66 -5 -78 36 34 -84 -44 0
-125 63 0
-125 -93 0
-125 75 0
-125 27 0
-125 77 0
-125 -67 0
-125 -25 0
-125 -57 0
-125 12 0
-125 55 0
125 -63 93 -75 -27 -77 67 25 57 -12 -55 0
-126 86 0
-126 82 0
-126 -68 0
-126 -73 0
-126 -26 0
-126 88 0
-126 91 0
-126 100 0
-126 41 0
-126 -60 0
126 -86 -82 68 73 26 -88 -91 -100 -41 60 0
-127 -25 0
-127 60 0
-127 -29 0
-127 -87 0
-127 52 0
-127 20 0
-127 -91 0
-127 34 0
-127 -28 0
-127 -49 0
127 25 -60 29 87 -52 -20 91 -34 28 49 0
-128 -53 0
-128 17 0
-128 -28 0
-128 -81 0
-128 86 0
-128 -29 0
-128 -43 0
-128 68 0
-128 87 0
-128 -73 0
128 53 -17 28 81 -86 29 43 -68 -87 73 0
-129 75 0
-129 46 0
-129 -67 0
-129 -44 0
-129 81 0
-129 15 0
-129 -64 0
-129 33 0
-129 -94 0
-129 73 0
129 -75 -46 67 44 -81 -15 64 -33 94 -73 0
-130 64 0
-130 49 0
-130 27 0
-130 12 0
-130 36 0
-130 -19 0
-130 -85 0
-130 53 0
-130 60 0
-130 -39 0
130 -64 -49 -27 -12 -36 19 85 -53 -60 39 0
121 122 123 124 125 126 127 128 129 130 0
-131 -24 0
-131 27 0
-131 -28 0
-131 -48 0
-131 78 0
-131 -75 0
-131 -38 0
-131 93 0
-131 -54 0
-131 -31 0
131 24 -27 28 48 -78 75 38 -93 54 31 0
-132 -68 0
-132 -71 0
-132 -6 0
-132 80 0
-132 36 0
-132 -73 0
-132 52 0
-132 16 0
-132 8 0
-132 -60 0
132 68 71 6 -80 -36 73 -52 -16 -8 60 0
-133 -29 0
-133 25 0
-133 94 0
-133 52 0
-133 -55 0
-133 -88 0
-133 -36 0
-133 59 0
-133 86 0
-133 -63 0
133 29 -25 -94 -52 55 88 36 -59 -86 63 0
-134 52 0
-134 84 0
-134 28 0
-134 -42 0
-134 -76 0
-134 -97 0
-134 8 0
-134 -65 0
-134 -19 0
-134 -25 0
134 -52 -84 -28 42 76 97 -8 65 19 25 0
-135 -70 0
-135 92 0
-135 78 0
-135 74 0
-135 -53 0
-135 13 0
-135 -43 0
-135 -95 0
-135 -67 0
-135 17 0
135 70 -92 -78 -74 53 -13 43 95 67 -17 0
-136 -45 0
-136 -62 0
-136 -72 0
-136 83 0
-136 -76 0
-136 -23 0
-136 -2 0
-136 -42 0
-136 89 0
-136 -32 0
136 45 62 72 -83 76 23 2 42 -89 32 0
-137 -42 0
-137 31 0
-137 -80 0
-137 -94 0
-137 -49 0
-137 -12 0
-137 17 0
-137 -29 0
-137 -27 0
-137 -26 0
137 42 -31 80 94 49 12 -17 29 27 26 0
-138 75 0
-138 76 0
-138 -96 0
-138 63 0
-138 59 0
-138 -28 0
-138 81 0
-138 -68 0
-138 -13 0
-138 50 0
138 -75 -76 96 -63 -59 28 -81 68 13 -50 0
-139 -22 0
-139 84 0
-139 -20 0
-139 -41 0
-139 -31 0
-139 -30 0
-139 -2 0
-139 -7 0
-139 82 0
-139 -59 0
139 22 -84 20 41 31 30 2 7 -82 59 0
-140 50 0
-140 68 0
-140 -71 0
-140 21 0
-140 -76 0
-140 81 0
-140 -11 0
-140 -96 0
-140 56 0
-140 -38 0
140 -50 -68 71 -21 76 -81 11 96 -56 38 0
131 132 133 134 135 136 137 138 139 140 0
-141 21 0
-141 79 0
-141 86 0
-141 4 0
-141 76 0
-141 44 0
-141 -92 0
-141 85 0
-141 -45 0
-141 57 0
141 -21 -79 -86 -4 -76 -44 92 -85 45 -57 0
-142 -28 0
-142 49 0
-142 -5 0
-142 84 0
-142 -1 0
-142 -25 0
-142 -16 0
-142 90 0
-142 -60 0
-142 -85 0
142 28 -49 5 -84 1 25 16 -90 60 85 0
-143 -34 0
-143 -61 0
-143 -1 0
-143 90 0
-143 -92 0
-143 -82 0
-143 64 0
-143 100 0
-143 -26 0
-143 -31 0
143 34 61 1 -90 92 82 -64 -100 26 31 0
-144 -49 0
-144 53 0
-144 -84 0
-144 55 0
-144 -48 0
-144 60 0
-144 12 0
-144 -44 0
-144 -92 0
-144 -46 0
144 49 -53 84 -55 48 -60 -12 44 92 46 0
-145 -6 0
-145 39 0
-145 91 0
-145 96 0
-145 -27 0
-145 -32 0
-145 -64 0
-145 -90 0
-145 5 0
-145 -25 0
145 6 -39 -91 -96 27 32 64 90 -5 25 0
-146 -92 0
-146 97 0
-146 88 0
-146 -22 0
-146 -69 0
-146 -53 0
-146 30 0
-146 44 0
-146 49 0
-146 11 0
146 92 -97 -88 22 69 53 -30 -44 -49 -11 0
-147 -55 0
-147 25 0
-147 -56 0
-147 -96 0
-147 69 0
-147 -20 0
-147 49 0
-147 51 0
-147 53 0
-147 15 0
147 55 -25 56 96 -69 20 -49 -51 -53 -15 0
-148 96 0
-148 7 0
-148 -92 0
-148 -39 0
-148 -50 0
-148 98 0
-148 -59 0
-148 -78 0
-148 91 0
-148 43 0
148 -96 -7 92 39 50 -98 59 78 -91 -43 0
-149 -70 0
-149 -9 0
-149 -46 0
-149 92 0
-149 -100 0
-149 -50 0
-149 -60 0
-149 36 0
-149 -48 0
-149 -19 0
149 70 9 46 -92 100 50 60 -36 48 19 0
-150 46 0
-150 62 0
-150 17 0
-150 48 0
-150 49 0
-150 19 0
-150 -39 0
-150 12 0
-150 -73 0
-150 55 0
150 -46 -62 -17 -48 -49 -19 39 -12 73 -55 0
141 142 143 144 145 146 147 148 149 150 0
-151 -61 0
-151 -63 0
-151 -81 0
-151 92 0
-151 -11 0
-151 65 0
-151 -10 0
-151 -99 0
-151 80 0
-151 21 0
151 61 63 81 -92 11 -65 10 99 -80 -21 0
-152 3 0
-152 -4 0
-152 -48 0
-152 94 0
-152 68 0
-152 23 0
-152 -22 0
-152 -28 0
-152 62 0
-152 38 0
152 -3 4 48 -94 -68 -23 22 28 -62 -38 0
-153 -80 0
-153 20 0
-153 77 0
-153 -3 0
-153 -55 0
-153 87 0
-153 -12 0
-153 6 0
-153 48 0
-153 -90 0
153 80 -20 -77 3 55 -87 12 -6 -48 90 0
-154 -63 0
-154 -52 0
-154 67 0
-154 -60 0
-154 36 0
-154 -13 0
-154 -23 0
-154 -49 0
-154 45 0
-154 -38 0
154 63 52 -67 60 -36 13 23 49 -45 38 0
-155 -47 0
-155 96 0
-155 28 0
-155 31 0
-155 -11 0
-155 -78 0
-155 22 0
-155 94 0
-155 88 0
-155 -57 0
155 47 -96 -28 -31 11 78 -22 -94 -88 57 0
-156 75 0
-156 90 0
-156 67 0
-156 49 0
-156 -80 0
-156 -76 0
-156 -30 0
-156 82 0
-156 34 0
-156 -93 0
156 -75 -90 -67 -49 80 76 30 -82 -34 93 0
-157 1 0
-157 -51 0
-157 25 0
-157 9 0
-157 -30 0
-157 91 0
-157 10 0
-157 -21 0
-157 92 0
-157 -100 0
157 -1 51 -25 -9 30 -91 -10 21 -92 100 0
-158 64 0
-158 -42 0
-158 -56 0
-158 94 0
-158 -27 0
-158 -7 0
-158 98 0
-158 -4 0
-158 8 0
-158 -10 0
158 -64 42 56 -94 27 7 -98 4 -8 10 0
-159 44 0
-159 -99 0
-159 -86 0
-159 -58 0
-159 39 0
-159 9 0
-159 -74 0
-159 34 0
-159 15 0
-159 -30 0
159 -44 99 86 58 -39 -9 74 -34 -15 30 0
-160 88 0
-160 -16 0
-160 31 0
-160 -46 0
-160 22 0
-160 -83 0
-160 82 0
-160 49 0
-160 -91 0
-160 5 0
160 -88 16 -31 46 -22 83 -82 -49 91 -5 0
151 152 153 154 155 156 157 158 159 160 0
-161 53 0
-161 92 0
-161 37 0
-161 24 0
-161 -69 0
-161 -38 0
-161 1 0
-161 -60 0
-161 58 0
-161 -56 0
161 -53 -92 -37 -24 69 38 -1 60 -58 56 0
-162 44 0
-162 -20 0
-162 13 0
-162 95 0
-162 4 0
-162 29 0
-162 69 0
-162 -97 0
-162 -24 0
-162 32 0
162 -44 20 -13 -95 -4 -29 -69 97 24 -32 0
-163 78 0
-163 -96 0
-163 29 0
-163 51 0
-163 88 0
-163 69 0
-163 -62 0
-163 95 0
-163 -15 0
-163 -73 0
163 -78 96 -29 -51 -88 -69 62 -95 15 73 0
-164 -84 0
-164 -76 0
-164 -57 0
-164 -22 0
-164 -98 0
-164 41 0
-164 -3 0
-164 62 0
-164 -1 0
-164 47 0
164 84 76 57 22 98 -41 3 -62 1 -47 0
-165 81 0
-165 -3 0
-165 100 0
-165 -29 0
-165 42 0
-165 41 0
-165 57 0
-165 26 0
-165 -46 0
-165 -55 0
165 -81 3 -100 29 -42 -41 -57 -26 46 55 0
-166 -98 0
-166 57 0
-166 -26 0
-166 5 0
-166 -65 0
-166 -28 0
-166 55 0
-166 -50 0
-166 -72 0
-166 53 0
166 98 -57 26 -5 65 28 -55 50 72 -53 0
-167 -67 0
-167 -63 0
-167 33 0
-167 83 0
-167 -50 0
-167 -71 0
-167 97 0
-167 -2 0
-167 -25 0
-167 16 0
167 67 63 -33 -83 50 71 -97 2 25 -16 0
-168 -81 0
-168 66 0
-168 34 0
-168 -4 0
-168 36 0
-168 63 0
-168 -73 0
-168 -61 0
-168 82 0
-168 -39 0
168 81 -66 -34 4 -36 -63 73 61 -82 39 0
-169 -96 0
-169 6 0
-169 -15 0
-169 26 0
-169 4 0
-169 92 0
-169 32 0
-169 -49 0
-169 60 0
-169 18 0
169 96 -6 15 -26 -4 -92 -32 49 -60 -18 0
-170 -5 0
-170 -79 0
-170 -97 0
-170 -12 0
-170 -28 0
-170 50 0
-170 32 0
-170 -9 0
-170 16 0
-170 94 0
170 5 79 97 12 28 -50 -32 9 -16 -94 0
161 162 163 164 165 166 167 168 169 170 0
-171 -45 0
-171 -94 0
-171 -51 0
-171 -90 0
-171 -75 0
-171 -39 0
-171 91 0
-171 -78 0
-171 61 0
-171 -9 0
171 45 94 51 90 75 39 -91 78 -61 9 0
-172 -43 0
-172 96 0
-172 -39 0
-172 -55 0
-172 -89 0
-172 100 0
-172 -8 0
-172 -1 0
-172 22 0
-172 -11 0
172 43 -96 39 55 89 -100 8 1 -22 11 0
-173 -59 0
-173 34 0
-173 -65 0
-173 -57 0
-173 67 0
-173 18 0
-173 11 0
-173 79 0
-173 83 0
-173 64 0
173 59 -34 65 57 -67 -18 -11 -79 -83 -64 0
-174 -56 0
-174 9 0
-174 -98 0
-174 45 0
-174 -85 0
-174 -25 0
-174 84 0
-174 -15 0
-174 31 0
-174 2 0
174 56 -9 98 -45 85 25 -84 15 -31 -2 0
-175 -70 0
-175 -54 0
-175 -93 0
-175 57 0
-175 -90 0
-175 89 0
-175 -42 0
-175 26 0
-175 100 0
-175 -13 0
175 70 54 93 -57 90 -89 42 -26 -100 13 0
-176 -95 0
-176 84 0
-176 9 0
-176 -24 0
-176 -26 0
-176 -8 0
-176 -15 0
-176 -40 0
-176 -1 0
-176 -34 0
176 95 -84 -9 24 26 8 15 40 1 34 0
-177 -98 0
-177 -13 0
-177 63 0
-177 56 0
-177 -85 0
-177 -86 0
-177 49 0
-177 -59 0
-177 6 0
-177 60 0
177 98 13 -63 -56 85 86 -49 59 -6 -60 0
-178 29 0
-178 -21 0
-178 -45 0
-178 64 0
-178 71 0
-178 -86 0
-178 49 0
-178 97 0
-178 2 0
-178 1 0
178 -29 21 45 -64 -71 86 -49 -97 -2 -1 0
-179 -77 0
-179 -7 0
-179 -71 0
-179 12 0
-179 56 0
-179 -85 0
-179 38 0
-179 24 0
-179 -33 0
-179 67 0
179 77 7 71 -12 -56 85 -38 -24 33 -67 0
-180 -22 0
-180 36 0
-180 51 0
-180 -68 0
-180 -97 0
-180 30 0
-180 65 0
-180 -33 0
-180 61 0
-180 70 0
180 22 -36 -51 68 97 -30 -65 33 -61 -70 0
171 172 173 174 175 176 177 178 179 180 0
-181 -53 0
-181 -52 0
-181 63 0
-181 69 0
-181 61 0
-181 -33 0
-181 81 0
-181 11 0
-181 -5 0
-181 18 0
181 53 52 -63 -69 -61 33 -81 -11 5 -18 0
-182 48 0
-182 29 0
-182 -58 0
-182 91 0
-182 37 0
-182 60 0
-182 -25 0
-182 -83 0
-182 32 0
-182 -5 0
182 -48 -29 58 -91 -37 -60 25 83 -32 5 0
-183 92 0
-183 -14 0
-183 -49 0
-183 -72 0
-183 90 0
-183 -59 0
-183 -36 0
-183 41 0
-183 -54 0
-183 83 0
183 -92 14 49 72 -90 59 36 -41 54 -83 0
-184 -25 0
-184 57 0
-184 16 0
-184 -41 0
-184 -89 0
-184 -61 0
-184 70 0
-184 63 0
-184 -38 0
-184 -62 0
184 25 -57 -16 41 89 61 -70 -63 38 62 0
-185 91 0
-185 -99 0
-185 50 0
-185 -47 0
-185 67 0
-185 -23 0
-185 11 0
-185 -9 0
-185 -61 0
-185 58 0
185 -91 99 -50 47 -67 23 -11 9 61 -58 0
-186 -52 0
-186 -85 0
-186 87 0
-186 65 0
-186 34 0
-186 69 0
-186 45 0
-186 -71 0
-186 67 0
-186 2 0
186 52 85 -87 -65 -34 -69 -45 71 -67 -2 0
-187 -69 0
-187 36 0
-187 71 0
-187 52 0
-187 -24 0
-187 -47 0
-187 -57 0
-187 34 0
-187 55 0
-187 56 0
187 69 -36 -71 -52 24 47 57 -34 -55 -56 0
-188 -70 0
-188 -89 0
-188 -7 0
-188 -69 0
-188 66 0
-188 16 0
-188 77 0
-188 40 0
-188 -72 0
-188 90 0
188 70 89 7 69 -66 -16 -77 -40 72 -90 0
-189 -41 0
-189 -39 0
-189 -38 0
-189 14 0
-189 -71 0
-189 7 0
-189 -34 0
-189 -74 0
-189 -57 0
-189 61 0
189 41 39 38 -14 71 -7 34 74 57 -61 0
-190 -5 0
-190 16 0
-190 -61 0
-190 -91 0
-190 7 0
-190 -59 0
-190 9 0
-190 -19 0
-190 33 0
-190 -87 0
190 5 -16 61 91 -7 59 -9 19 -33 87 0
181 182 183 184 185 186 187 188 189 190 0
-191 -54 0
-191 -82 0
-191 -34 0
-191 -6 0
-191 -3 0
-191 72 0
-191 -35 0
-191 -77 0
-191 -25 0
-191 56 0
191 54 82 34 6 3 -72 35 77 25 -56 0
-192 -26 0
-192 72 0
-192 30 0
-192 -43 0
-192 36 0
-192 -75 0
-192 89 0
-192 -8 0
-192 -67 0
-192 -81 0
192 26 -72 -30 43 -36 75 -89 8 67 81 0
-193 -67 0
-193 92 0
-193 -49 0
-193 59 0
-193 -64 0
-193 -36 0
-193 -61 0
-193 25 0
-193 -66 0
-193 -78 0
193 67 -92 49 -59 64 36 61 -25 66 78 0
-194 52 0
-194 -29 0
-194 22 0
-194 12 0
-194 -85 0
-194 -66 0
-194 28 0
-194 87 0
-194 -53 0
-194 -70 0
194 -52 29 -22 -12 85 66 -28 -87 53 70 0
-195 -71 0
-195 -21 0
-195 -31 0
-195 92 0
-195 -10 0
-195 -7 0
-195 81 0
-195 90 0
-195 -60 0
-195 95 0
195 71 21 31 -92 10 7 -81 -90 60 -95 0
-196 33 0
-196 42 0
-196 28 0
-196 -6 0
-196 -100 0
-196 -89 0
-196 81 0
-196 -30 0
-196 -34 0
-196 47 0
196 -33 -42 -28 6 100 89 -81 30 34 -47 0
-197 -71 0
-197 53 0
-197 91 0
-197 -68 0
-197 23 0
-197 -44 0
-197 -63 0
-197 -46 0
-197 -39 0
-197 -33 0
197 71 -53 -91 68 -23 44 63 46 39 33 0
-198 78 0
-198 -84 0
-198 -83 0
-198 36 0
-198 96 0
-198 -24 0
-198 -48 0
-198 -5 0
-198 82 0
-198 93 0
198 -78 84 83 -36 -96 24 48 5 -82 -93 0
-199 88 0
-199 -84 0
-199 86 0
-199 -37 0
-199 -83 0
-199 -91 0
-199 31 0
-199 95 0
-199 35 0
-199 -43 0
199 -88 84 -86 37 83 91 -31 -95 -35 43 0
-200 -62 0
-200 -81 0
-200 45 0
-200 -42 0
-200 77 0
-200 -91 0
-200 82 0
-200 -94 0
-200 19 0
-200 -90 0
200 62 81 -45 42 -77 91 -82 94 -19 90 0
191 192 193 194 195 196 197 198 199 200 0
